
Gurobi 10.0.0 (win64, gurobi_cl) logging started Mon Jan 29 15:56:44 2024

Set parameter Username
Set parameter LogFile to value "gurobi.log"

Gurobi 10.0.0 (win64, gurobi_cl) logging started Mon Jan 29 15:57:41 2024

Set parameter Username
Set parameter LogFile to value "gurobi.log"

Gurobi 10.0.0 (win64, gurobi_cl) logging started Mon Jan 29 15:58:17 2024

Set parameter Username
Set parameter LogFile to value "gurobi.log"

Gurobi 10.0.0 (win64, gurobi_cl) logging started Mon Jan 29 16:02:35 2024

Set parameter Username
Set parameter LogFile to value "gurobi.log"

Gurobi 10.0.0 (win64, gurobi_cl) logging started Mon Jan 29 16:03:06 2024

Set parameter Username
Set parameter LogFile to value "gurobi.log"

Gurobi 10.0.0 (win64, gurobi_cl) logging started Mon Jan 29 16:03:40 2024

Set parameter Username
Set parameter LogFile to value "gurobi.log"

Gurobi 10.0.0 (win64, gurobi_cl) logging started Mon Jan 29 16:04:39 2024

Set parameter Username
Set parameter LogFile to value "gurobi.log"

Gurobi 10.0.0 (win64, gurobi_cl) logging started Mon Jan 29 16:05:12 2024

Set parameter Username
Set parameter LogFile to value "gurobi.log"

Gurobi 10.0.0 (win64, gurobi_cl) logging started Mon Jan 29 16:08:06 2024

Set parameter Username
Set parameter LogFile to value "gurobi.log"

Gurobi 10.0.0 (win64, gurobi_cl) logging started Mon Jan 29 16:09:14 2024

Set parameter Username
Set parameter LogFile to value "gurobi.log"

Gurobi 10.0.0 (win64, gurobi_cl) logging started Mon Jan 29 16:10:24 2024

Set parameter Username
Set parameter LogFile to value "gurobi.log"

Gurobi 10.0.0 (win64, gurobi_cl) logging started Mon Jan 29 16:11:20 2024

Set parameter Username
Set parameter LogFile to value "gurobi.log"

Gurobi 10.0.0 (win64, gurobi_cl) logging started Mon Jan 29 16:12:28 2024

Set parameter Username
Set parameter LogFile to value "gurobi.log"

Gurobi 10.0.0 (win64, gurobi_cl) logging started Mon Jan 29 16:20:41 2024

Set parameter Username
Set parameter LogFile to value "gurobi.log"

Gurobi 10.0.0 (win64, gurobi_cl) logging started Mon Jan 29 16:26:40 2024

Set parameter Username
Set parameter LogFile to value "gurobi.log"

Gurobi 10.0.0 (win64, gurobi_cl) logging started Mon Jan 29 16:28:05 2024

Set parameter Username
Set parameter LogFile to value "gurobi.log"

Gurobi 10.0.0 (win64, gurobi_cl) logging started Mon Jan 29 16:28:48 2024

Set parameter Username
Set parameter LogFile to value "gurobi.log"

Gurobi 10.0.0 (win64, gurobi_cl) logging started Mon Jan 29 16:29:08 2024

Set parameter Username
Set parameter LogFile to value "gurobi.log"

Gurobi 10.0.0 (win64, gurobi_cl) logging started Mon Jan 29 16:29:37 2024

Set parameter Username
Set parameter LogFile to value "gurobi.log"

Gurobi 10.0.0 (win64, gurobi_cl) logging started Mon Jan 29 16:30:20 2024

Set parameter Username
Set parameter LogFile to value "gurobi.log"

Gurobi 10.0.0 (win64, gurobi_cl) logging started Mon Jan 29 16:30:49 2024

Set parameter Username
Set parameter LogFile to value "gurobi.log"

Gurobi 10.0.0 (win64, gurobi_cl) logging started Mon Jan 29 16:32:30 2024

Set parameter Username
Set parameter LogFile to value "gurobi.log"

Gurobi 10.0.0 (win64, gurobi_cl) logging started Mon Jan 29 16:33:25 2024

Set parameter Username
Set parameter LogFile to value "gurobi.log"

Gurobi 10.0.0 (win64, gurobi_cl) logging started Mon Jan 29 16:35:46 2024

Set parameter Username
Set parameter LogFile to value "gurobi.log"

Gurobi 10.0.0 (win64, gurobi_cl) logging started Mon Jan 29 16:40:02 2024

Set parameter Username
Set parameter LogFile to value "gurobi.log"

Gurobi 10.0.0 (win64, gurobi_cl) logging started Mon Jan 29 16:42:16 2024

Set parameter Username
Set parameter LogFile to value "gurobi.log"

Gurobi 10.0.0 (win64, gurobi_cl) logging started Mon Jan 29 16:44:24 2024

Set parameter Username
Set parameter LogFile to value "gurobi.log"

Gurobi 10.0.0 (win64, gurobi_cl) logging started Mon Jan 29 16:45:31 2024

Set parameter Username
Set parameter LogFile to value "gurobi.log"

Gurobi 10.0.0 (win64, gurobi_cl) logging started Mon Jan 29 16:46:20 2024

Set parameter Username
Set parameter LogFile to value "gurobi.log"

Gurobi 10.0.0 (win64, gurobi_cl) logging started Mon Jan 29 16:58:51 2024

Set parameter Username
Set parameter LogFile to value "gurobi.log"

Gurobi 10.0.0 (win64, gurobi_cl) logging started Mon Jan 29 16:59:11 2024

Set parameter Username
Set parameter LogFile to value "gurobi.log"

Gurobi 10.0.0 (win64, gurobi_cl) logging started Mon Jan 29 17:11:26 2024

Set parameter Username
Set parameter LogFile to value "gurobi.log"

Gurobi 10.0.0 (win64, gurobi_cl) logging started Mon Jan 29 17:15:14 2024

Set parameter Username
Set parameter LogFile to value "gurobi.log"

Gurobi 10.0.0 (win64, gurobi_cl) logging started Mon Jan 29 17:15:54 2024

Set parameter Username
Set parameter LogFile to value "gurobi.log"

Gurobi 10.0.0 (win64, gurobi_cl) logging started Mon Jan 29 17:17:13 2024

Set parameter Username
Set parameter LogFile to value "gurobi.log"

Gurobi 10.0.0 (win64, gurobi_cl) logging started Mon Jan 29 17:17:36 2024

Set parameter Username
Set parameter LogFile to value "gurobi.log"

Gurobi 10.0.0 (win64, gurobi_cl) logging started Mon Jan 29 17:19:03 2024

Set parameter Username
Set parameter LogFile to value "gurobi.log"

Gurobi 10.0.0 (win64, gurobi_cl) logging started Mon Jan 29 17:20:17 2024

Set parameter Username
Set parameter LogFile to value "gurobi.log"

Gurobi 10.0.0 (win64, gurobi_cl) logging started Mon Jan 29 17:21:13 2024

Set parameter Username
Set parameter LogFile to value "gurobi.log"

Gurobi 10.0.0 (win64, gurobi_cl) logging started Mon Jan 29 17:22:59 2024

Set parameter Username
Set parameter LogFile to value "gurobi.log"

Gurobi 10.0.0 (win64, gurobi_cl) logging started Mon Jan 29 17:25:54 2024

Set parameter Username
Set parameter LogFile to value "gurobi.log"

Gurobi 10.0.0 (win64, gurobi_cl) logging started Mon Jan 29 17:34:54 2024

Set parameter Username
Set parameter LogFile to value "gurobi.log"

Gurobi 10.0.0 (win64, gurobi_cl) logging started Mon Jan 29 17:35:16 2024

Set parameter Username
Set parameter LogFile to value "gurobi.log"

Gurobi 10.0.0 (win64, gurobi_cl) logging started Mon Jan 29 17:36:11 2024

Set parameter Username
Set parameter LogFile to value "gurobi.log"

Gurobi 10.0.0 (win64, gurobi_cl) logging started Mon Jan 29 17:36:56 2024

Set parameter Username
Set parameter LogFile to value "gurobi.log"

Gurobi 10.0.0 (win64, gurobi_cl) logging started Mon Jan 29 17:37:24 2024

Set parameter Username
Set parameter LogFile to value "gurobi.log"

Gurobi 10.0.0 (win64, gurobi_cl) logging started Mon Jan 29 17:42:29 2024

Set parameter Username
Set parameter LogFile to value "gurobi.log"

Gurobi 10.0.0 (win64, gurobi_cl) logging started Mon Jan 29 17:45:31 2024

Set parameter Username
Set parameter LogFile to value "gurobi.log"

Gurobi 10.0.0 (win64, gurobi_cl) logging started Mon Jan 29 17:47:27 2024

Set parameter Username
Set parameter LogFile to value "gurobi.log"

Gurobi 10.0.0 (win64, gurobi_cl) logging started Mon Jan 29 17:50:11 2024

Set parameter Username
Set parameter LogFile to value "gurobi.log"

Gurobi 10.0.0 (win64, gurobi_cl) logging started Mon Jan 29 17:52:55 2024

Set parameter Username
Set parameter LogFile to value "gurobi.log"

Gurobi 10.0.0 (win64, gurobi_cl) logging started Mon Jan 29 17:54:51 2024

Set parameter Username
Set parameter LogFile to value "gurobi.log"

Gurobi 10.0.0 (win64, gurobi_cl) logging started Mon Jan 29 18:00:32 2024

Set parameter Username
Set parameter LogFile to value "gurobi.log"

Gurobi 10.0.0 (win64, gurobi_cl) logging started Mon Jan 29 18:02:39 2024

Set parameter Username
Set parameter LogFile to value "gurobi.log"

Gurobi 10.0.0 (win64, gurobi_cl) logging started Tue Jan 30 16:36:01 2024

Set parameter Username
Set parameter LogFile to value "gurobi.log"

Gurobi 10.0.0 (win64, gurobi_cl) logging started Tue Jan 30 16:36:46 2024

Set parameter Username
Set parameter LogFile to value "gurobi.log"

Gurobi 10.0.0 (win64, gurobi_cl) logging started Tue Jan 30 16:42:51 2024

Set parameter Username
Set parameter LogFile to value "gurobi.log"

Gurobi 10.0.0 (win64, gurobi_cl) logging started Tue Jan 30 16:43:05 2024

Set parameter Username
Set parameter LogFile to value "gurobi.log"

Gurobi 10.0.0 (win64, gurobi_cl) logging started Thu Feb  1 17:10:42 2024

Set parameter Username
Set parameter LogFile to value "gurobi.log"

Gurobi 10.0.0 (win64, gurobi_cl) logging started Thu Feb  1 17:11:39 2024

Set parameter Username
Set parameter LogFile to value "gurobi.log"

Gurobi 10.0.0 (win64, gurobi_cl) logging started Thu Feb  1 17:24:06 2024

Set parameter Username
Set parameter LogFile to value "gurobi.log"

Gurobi 10.0.0 (win64, gurobi_cl) logging started Thu Feb  1 17:29:45 2024

Set parameter Username
Set parameter LogFile to value "gurobi.log"

Gurobi 10.0.0 (win64, gurobi_cl) logging started Thu Feb  1 17:30:23 2024

Set parameter Username
Set parameter LogFile to value "gurobi.log"

Gurobi 10.0.0 (win64, gurobi_cl) logging started Thu Feb  1 17:32:14 2024

Set parameter Username
Set parameter LogFile to value "gurobi.log"

Gurobi 10.0.0 (win64, gurobi_cl) logging started Thu Feb  1 17:34:08 2024

Set parameter Username
Set parameter LogFile to value "gurobi.log"
